(declare-fun var0 () String)
(assert (RegexIn var0 (RegexConcat (RegexPlus (RegexPlus (Str2Reg "h"))) (RegexConcat (RegexUnion (RegexStar (Str2Reg "eee")) (RegexUnion (Str2Reg "f") (Str2Reg "gg"))) (RegexConcat (RegexStar (RegexPlus (Str2Reg "d"))) (RegexConcat (RegexPlus (RegexUnion (Str2Reg "bbb") (Str2Reg "c"))) (RegexConcat (RegexPlus (RegexStar (Str2Reg "aa"))) (RegexConcat (RegexUnion (RegexStar (Str2Reg "8")) (RegexPlus (Str2Reg "999"))) (RegexConcat (RegexPlus (RegexPlus (Str2Reg "7"))) (RegexConcat (RegexUnion (RegexStar (Str2Reg "44")) (RegexUnion (Str2Reg "5") (Str2Reg "6"))) (RegexConcat (RegexStar (RegexPlus (Str2Reg "3"))) (RegexUnion (RegexPlus (Str2Reg "0")) (RegexUnion (Str2Reg "11") (Str2Reg "222"))))))))))))))
(assert (<= 51 (Length var0)))
(check-sat)